environments_harbor/cryptominisat_assumptions_handling_medium/environment/data/circuit.cnf
c Circuit constraint problem
c 6 variables representing circuit signals
c This CNF describes valid states of a digital circuit
c Variables: 1, 2, 3, 4, 5, 6
p cnf 6 10
1 2 3 0
-3 5 0
3 -5 0
1 -4 0
2 6 0
-1 -2 4 0
4 5 -6 0
-5 6 0
1 2 -3 0
-4 -6 0